c File: flat30_3_0.col
c
c SOURCE: Joseph Culberson (joe@cs.ualberta.ca)
c DESCRIPTION: Quasi-random coloring problem
c              generated with flatness = 0
c                             probability = 0.200
c                             known coloring = 3
c                             random seed = 230592
c              Creation Date:  Fri Nov 29 22:01:49 1996
c Maximum degree = 6 Minimum degree = 2
c
c cnf created by edge2cnf
p cnf 90 300
-1 -2 0
-1 -3 0
-2 -3 0
1 2 3 0
-4 -5 0
-4 -6 0
-5 -6 0
4 5 6 0
-7 -8 0
-7 -9 0
-8 -9 0
7 8 9 0
-10 -11 0
-10 -12 0
-11 -12 0
10 11 12 0
-13 -14 0
-13 -15 0
-14 -15 0
13 14 15 0
-16 -17 0
-16 -18 0
-17 -18 0
16 17 18 0
-19 -20 0
-19 -21 0
-20 -21 0
19 20 21 0
-22 -23 0
-22 -24 0
-23 -24 0
22 23 24 0
-25 -26 0
-25 -27 0
-26 -27 0
25 26 27 0
-28 -29 0
-28 -30 0
-29 -30 0
28 29 30 0
-31 -32 0
-31 -33 0
-32 -33 0
31 32 33 0
-34 -35 0
-34 -36 0
-35 -36 0
34 35 36 0
-37 -38 0
-37 -39 0
-38 -39 0
37 38 39 0
-40 -41 0
-40 -42 0
-41 -42 0
40 41 42 0
-43 -44 0
-43 -45 0
-44 -45 0
43 44 45 0
-46 -47 0
-46 -48 0
-47 -48 0
46 47 48 0
-49 -50 0
-49 -51 0
-50 -51 0
49 50 51 0
-52 -53 0
-52 -54 0
-53 -54 0
52 53 54 0
-55 -56 0
-55 -57 0
-56 -57 0
55 56 57 0
-58 -59 0
-58 -60 0
-59 -60 0
58 59 60 0
-61 -62 0
-61 -63 0
-62 -63 0
61 62 63 0
-64 -65 0
-64 -66 0
-65 -66 0
64 65 66 0
-67 -68 0
-67 -69 0
-68 -69 0
67 68 69 0
-70 -71 0
-70 -72 0
-71 -72 0
70 71 72 0
-73 -74 0
-73 -75 0
-74 -75 0
73 74 75 0
-76 -77 0
-76 -78 0
-77 -78 0
76 77 78 0
-79 -80 0
-79 -81 0
-80 -81 0
79 80 81 0
-82 -83 0
-82 -84 0
-83 -84 0
82 83 84 0
-85 -86 0
-85 -87 0
-86 -87 0
85 86 87 0
-88 -89 0
-88 -90 0
-89 -90 0
88 89 90 0
-37 -1 0
-38 -2 0
-39 -3 0
-49 -1 0
-50 -2 0
-51 -3 0
-73 -1 0
-74 -2 0
-75 -3 0
-82 -1 0
-83 -2 0
-84 -3 0
-85 -1 0
-86 -2 0
-87 -3 0
-31 -4 0
-32 -5 0
-33 -6 0
-46 -4 0
-47 -5 0
-48 -6 0
-58 -4 0
-59 -5 0
-60 -6 0
-73 -4 0
-74 -5 0
-75 -6 0
-76 -4 0
-77 -5 0
-78 -6 0
-82 -4 0
-83 -5 0
-84 -6 0
-43 -7 0
-44 -8 0
-45 -9 0
-58 -7 0
-59 -8 0
-60 -9 0
-70 -7 0
-71 -8 0
-72 -9 0
-34 -10 0
-35 -11 0
-36 -12 0
-52 -10 0
-53 -11 0
-54 -12 0
-58 -10 0
-59 -11 0
-60 -12 0
-61 -10 0
-62 -11 0
-63 -12 0
-52 -13 0
-53 -14 0
-54 -15 0
-61 -13 0
-62 -14 0
-63 -15 0
-67 -13 0
-68 -14 0
-69 -15 0
-76 -13 0
-77 -14 0
-78 -15 0
-34 -16 0
-35 -17 0
-36 -18 0
-49 -16 0
-50 -17 0
-51 -18 0
-73 -16 0
-74 -17 0
-75 -18 0
-76 -16 0
-77 -17 0
-78 -18 0
-64 -19 0
-65 -20 0
-66 -21 0
-85 -19 0
-86 -20 0
-87 -21 0
-49 -22 0
-50 -23 0
-51 -24 0
-61 -22 0
-62 -23 0
-63 -24 0
-70 -22 0
-71 -23 0
-72 -24 0
-82 -22 0
-83 -23 0
-84 -24 0
-34 -25 0
-35 -26 0
-36 -27 0
-46 -25 0
-47 -26 0
-48 -27 0
-52 -25 0
-53 -26 0
-54 -27 0
-67 -25 0
-68 -26 0
-69 -27 0
-37 -28 0
-38 -29 0
-39 -30 0
-40 -28 0
-41 -29 0
-42 -30 0
-43 -28 0
-44 -29 0
-45 -30 0
-85 -28 0
-86 -29 0
-87 -30 0
-82 -31 0
-83 -32 0
-84 -33 0
-85 -31 0
-86 -32 0
-87 -33 0
-88 -34 0
-89 -35 0
-90 -36 0
-79 -37 0
-80 -38 0
-81 -39 0
-73 -40 0
-74 -41 0
-75 -42 0
-73 -43 0
-74 -44 0
-75 -45 0
-76 -43 0
-77 -44 0
-78 -45 0
-79 -43 0
-80 -44 0
-81 -45 0
-67 -46 0
-68 -47 0
-69 -48 0
-73 -46 0
-74 -47 0
-75 -48 0
-76 -46 0
-77 -47 0
-78 -48 0
-70 -49 0
-71 -50 0
-72 -51 0
-85 -49 0
-86 -50 0
-87 -51 0
-61 -52 0
-62 -53 0
-63 -54 0
-88 -52 0
-89 -53 0
-90 -54 0
-64 -55 0
-65 -56 0
-66 -57 0
-88 -55 0
-89 -56 0
-90 -57 0
-64 -58 0
-65 -59 0
-66 -60 0
-70 -58 0
-71 -59 0
-72 -60 0
-76 -58 0
-77 -59 0
-78 -60 0
